(set-info :source |printed by MathSAT|)
(declare-fun |!{$(in_main#0)<N>}| () Int)
(declare-fun |!{$(in_main#0)<N>}.next| () Int)
(declare-fun |!{$(in_main#0)<i>}| () Int)
(declare-fun |!{$(in_main#0)<i>}.next| () Int)
(declare-fun |!{$(in_main#0)<k>}| () Int)
(declare-fun |!{$(in_main#0)<k>}.next| () Int)
(declare-fun |!{$(in_main#0)<k#1>}| () Int)
(declare-fun |!{$(in_main#0)<k#1>}.next| () Int)
(declare-fun |!{$(in_main#0)<array1.1>}| () (Array Int Int))
(declare-fun |!{$(in_main#0)<array1.1>}.next| () (Array Int Int))
(declare-fun |!{$(in_main#0)<array2.2>}| () (Array Int Int))
(declare-fun |!{$(in_main#0)<array2.2>}.next| () (Array Int Int))
(declare-fun |!{$(in_main#0)<$(in___VERIFIER_nondet_int#0)<h#<__VERIFIER_nondet_int.return>>>}| () Int)
(declare-fun |!{$(in_main#0)<$(in___VERIFIER_nondet_int#2)<h#<__VERIFIER_nondet_int.return>>>}| () Int)
(declare-fun |!{$(in_main#0)<$(in___VERIFIER_nondet_int#3)<h#<__VERIFIER_nondet_int.return>>>}| () Int)
(declare-fun !pc () Int)
(declare-fun !pc.next () Int)
(declare-fun |%{$(in_main#0)<i>}#1| () Int)
(declare-fun |%{$(in_main#0)<k#1>}#1| () Int)
(declare-fun |%{$(in_main#0)<array1.1>}#1| () (Array Int Int))
(declare-fun |%{$(in_main#0)<array2.2>}#1| () (Array Int Int))
(define-fun .def_36 () Int (! !pc :next !pc.next))
(define-fun .def_39 () Bool (! (= .def_36 2) :init true))
(define-fun .def_190 () Bool (= .def_36 40))
(define-fun .def_161 () Bool (= !pc.next 68))
(define-fun .def_193 () Bool (and .def_161 .def_190))
(define-fun .def_183 () Bool (= |!{$(in_main#0)<i>}.next| 0))
(define-fun .def_8 () Int (! |!{$(in_main#0)<N>}| :next |!{$(in_main#0)<N>}.next|))
(define-fun .def_89 () Bool (= .def_8 |!{$(in_main#0)<N>}.next|))
(define-fun .def_184 () Bool (and .def_89 .def_183))
(define-fun .def_12 () Int (! |!{$(in_main#0)<k>}| :next |!{$(in_main#0)<k>}.next|))
(define-fun .def_93 () Bool (= .def_12 |!{$(in_main#0)<k>}.next|))
(define-fun .def_185 () Bool (and .def_93 .def_184))
(define-fun .def_14 () Int (! |!{$(in_main#0)<k#1>}| :next |!{$(in_main#0)<k#1>}.next|))
(define-fun .def_95 () Bool (= .def_14 |!{$(in_main#0)<k#1>}.next|))
(define-fun .def_186 () Bool (and .def_95 .def_185))
(define-fun .def_16 () (Array Int Int) (! |!{$(in_main#0)<array1.1>}| :next |!{$(in_main#0)<array1.1>}.next|))
(define-fun .def_97 () Bool (= .def_16 |!{$(in_main#0)<array1.1>}.next|))
(define-fun .def_187 () Bool (and .def_97 .def_186))
(define-fun .def_18 () (Array Int Int) (! |!{$(in_main#0)<array2.2>}| :next |!{$(in_main#0)<array2.2>}.next|))
(define-fun .def_99 () Bool (= .def_18 |!{$(in_main#0)<array2.2>}.next|))
(define-fun .def_188 () Bool (and .def_99 .def_187))
(define-fun .def_168 () Bool (<= .def_8 .def_12))
(define-fun .def_189 () Bool (and .def_168 .def_188))
(define-fun .def_194 () Bool (and .def_189 .def_193))
(define-fun .def_70 () Bool (= !pc.next 40))
(define-fun .def_191 () Bool (and .def_70 .def_190))
(define-fun .def_171 () (Array Int Int) (store .def_18 .def_12 |!{$(in_main#0)<$(in___VERIFIER_nondet_int#3)<h#<__VERIFIER_nondet_int.return>>>}|))
(define-fun .def_180 () Bool (= |!{$(in_main#0)<array2.2>}.next| .def_171))
(define-fun .def_170 () (Array Int Int) (store .def_16 .def_12 |!{$(in_main#0)<$(in___VERIFIER_nondet_int#2)<h#<__VERIFIER_nondet_int.return>>>}|))
(define-fun .def_178 () Bool (= |!{$(in_main#0)<array1.1>}.next| .def_170))
(define-fun .def_173 () Int (* (- 1) |!{$(in_main#0)<k>}.next|))
(define-fun .def_174 () Int (+ .def_12 .def_173))
(define-fun .def_175 () Bool (= .def_174 (- 1)))
(define-fun .def_10 () Int (! |!{$(in_main#0)<i>}| :next |!{$(in_main#0)<i>}.next|))
(define-fun .def_91 () Bool (= .def_10 |!{$(in_main#0)<i>}.next|))
(define-fun .def_102 () Bool (and .def_89 .def_91))
(define-fun .def_176 () Bool (and .def_102 .def_175))
(define-fun .def_177 () Bool (and .def_95 .def_176))
(define-fun .def_179 () Bool (and .def_177 .def_178))
(define-fun .def_181 () Bool (and .def_179 .def_180))
(define-fun .def_169 () Bool (not .def_168))
(define-fun .def_182 () Bool (and .def_169 .def_181))
(define-fun .def_192 () Bool (and .def_182 .def_191))
(define-fun .def_195 () Bool (or .def_192 .def_194))
(define-fun .def_160 () Bool (= .def_36 68))
(define-fun .def_124 () Bool (= !pc.next 80))
(define-fun .def_164 () Bool (and .def_124 .def_160))
(define-fun .def_154 () Bool (= |!{$(in_main#0)<k#1>}.next| 0))
(define-fun .def_103 () Bool (and .def_93 .def_102))
(define-fun .def_155 () Bool (and .def_103 .def_154))
(define-fun .def_156 () Bool (and .def_97 .def_155))
(define-fun .def_157 () Bool (and .def_99 .def_156))
(define-fun .def_135 () Bool (<= .def_8 .def_10))
(define-fun .def_158 () Bool (and .def_135 .def_157))
(define-fun .def_165 () Bool (and .def_158 .def_164))
(define-fun .def_162 () Bool (and .def_160 .def_161))
(define-fun .def_137 () Int (* (- 1) .def_10))
(define-fun .def_138 () Int (+ .def_8 .def_137))
(define-fun .def_140 () Int (+ .def_138 (- 1)))
(define-fun .def_141 () Int (select .def_18 .def_140))
(define-fun .def_142 () (Array Int Int) (store .def_16 .def_10 .def_141))
(define-fun .def_150 () Bool (= |!{$(in_main#0)<array1.1>}.next| .def_142))
(define-fun .def_144 () Int (* (- 1) |!{$(in_main#0)<i>}.next|))
(define-fun .def_145 () Int (+ .def_10 .def_144))
(define-fun .def_146 () Bool (= .def_145 (- 1)))
(define-fun .def_147 () Bool (and .def_89 .def_146))
(define-fun .def_148 () Bool (and .def_93 .def_147))
(define-fun .def_149 () Bool (and .def_95 .def_148))
(define-fun .def_151 () Bool (and .def_149 .def_150))
(define-fun .def_152 () Bool (and .def_99 .def_151))
(define-fun .def_136 () Bool (not .def_135))
(define-fun .def_153 () Bool (and .def_136 .def_152))
(define-fun .def_163 () Bool (and .def_153 .def_162))
(define-fun .def_166 () Bool (or .def_163 .def_165))
(define-fun .def_128 () Bool (= !pc.next 0))
(define-fun .def_119 () Bool (= .def_36 80))
(define-fun .def_129 () Bool (and .def_119 .def_128))
(define-fun .def_73 () Bool (<= .def_8 .def_14))
(define-fun .def_112 () Bool (and .def_73 .def_89))
(define-fun .def_113 () Bool (and .def_91 .def_112))
(define-fun .def_114 () Bool (and .def_93 .def_113))
(define-fun .def_115 () Bool (and .def_95 .def_114))
(define-fun .def_116 () Bool (and .def_97 .def_115))
(define-fun .def_117 () Bool (and .def_99 .def_116))
(define-fun .def_130 () Bool (and .def_117 .def_129))
(define-fun .def_125 () Bool (and .def_119 .def_124))
(define-fun .def_104 () Int (* (- 1) |!{$(in_main#0)<k#1>}.next|))
(define-fun .def_105 () Int (+ .def_14 .def_104))
(define-fun .def_106 () Bool (= .def_105 (- 1)))
(define-fun .def_107 () Bool (and .def_103 .def_106))
(define-fun .def_108 () Bool (and .def_97 .def_107))
(define-fun .def_109 () Bool (and .def_99 .def_108))
(define-fun .def_77 () Int (* (- 1) .def_14))
(define-fun .def_78 () Int (+ .def_8 .def_77))
(define-fun .def_80 () Int (+ .def_78 (- 1)))
(define-fun .def_81 () Int (select .def_18 .def_80))
(define-fun .def_75 () Int (select .def_16 .def_14))
(define-fun .def_82 () Bool (= .def_75 .def_81))
(define-fun .def_83 () Int (ite .def_82 1 0))
(define-fun .def_84 () Bool (= .def_83 0))
(define-fun .def_85 () Bool (not .def_84))
(define-fun .def_110 () Bool (and .def_85 .def_109))
(define-fun .def_74 () Bool (not .def_73))
(define-fun .def_111 () Bool (and .def_74 .def_110))
(define-fun .def_126 () Bool (and .def_111 .def_125))
(define-fun .def_121 () Bool (= !pc.next 100))
(define-fun .def_122 () Bool (and .def_119 .def_121))
(define-fun .def_90 () Bool (and .def_84 .def_89))
(define-fun .def_92 () Bool (and .def_90 .def_91))
(define-fun .def_94 () Bool (and .def_92 .def_93))
(define-fun .def_96 () Bool (and .def_94 .def_95))
(define-fun .def_98 () Bool (and .def_96 .def_97))
(define-fun .def_100 () Bool (and .def_98 .def_99))
(define-fun .def_101 () Bool (and .def_74 .def_100))
(define-fun .def_123 () Bool (and .def_101 .def_122))
(define-fun .def_127 () Bool (or .def_123 .def_126))
(define-fun .def_131 () Bool (or .def_127 .def_130))
(define-fun .def_71 () Bool (and .def_39 .def_70))
(define-fun .def_66 () Bool (= |!{$(in_main#0)<array2.2>}.next| |%{$(in_main#0)<array2.2>}#1|))
(define-fun .def_64 () Bool (= |!{$(in_main#0)<array1.1>}.next| |%{$(in_main#0)<array1.1>}#1|))
(define-fun .def_62 () Bool (= |!{$(in_main#0)<k#1>}.next| |%{$(in_main#0)<k#1>}#1|))
(define-fun .def_60 () Bool (= |!{$(in_main#0)<k>}.next| 0))
(define-fun .def_58 () Bool (= |!{$(in_main#0)<i>}.next| |%{$(in_main#0)<i>}#1|))
(define-fun .def_57 () Bool (= |!{$(in_main#0)<N>}.next| |!{$(in_main#0)<$(in___VERIFIER_nondet_int#0)<h#<__VERIFIER_nondet_int.return>>>}|))
(define-fun .def_59 () Bool (and .def_57 .def_58))
(define-fun .def_61 () Bool (and .def_59 .def_60))
(define-fun .def_63 () Bool (and .def_61 .def_62))
(define-fun .def_65 () Bool (and .def_63 .def_64))
(define-fun .def_67 () Bool (and .def_65 .def_66))
(define-fun .def_52 () Bool (<= |!{$(in_main#0)<$(in___VERIFIER_nondet_int#0)<h#<__VERIFIER_nondet_int.return>>>}| 0))
(define-fun .def_53 () Bool (not .def_52))
(define-fun .def_54 () Int (ite .def_53 1 0))
(define-fun .def_55 () Bool (= .def_54 0))
(define-fun .def_56 () Bool (not .def_55))
(define-fun .def_68 () Bool (and .def_56 .def_67))
(define-fun .def_72 () Bool (and .def_68 .def_71))
(define-fun .def_132 () Bool (or .def_72 .def_131))
(define-fun .def_167 () Bool (or .def_132 .def_166))
(define-fun .def_196 () Bool (! (or .def_167 .def_195) :trans true))
(define-fun .def_133 () Bool (= .def_36 100))
(define-fun .def_197 () Bool (! (not .def_133) :invar-property 0 :invar-property-name ||))
(assert true)
